Maximize
 obj: 51 VAR1 + 102 VAR2 + 66 VAR3 + 66 VAR4 + 89 VAR5
Subject To
 c1: 10 VAR1 + 15 VAR2 + 10 VAR3 + 10 VAR4 + 20 VAR5 <= 130
 c2: 1 VAR1 + 2 VAR2 + 2 VAR3 + 1 VAR4 + 1 VAR5 <= 13
 c3: 3 VAR1 + 1 VAR2 + 6 VAR3 + 6 VAR4 + 3 VAR5 <= 45
 c4: 2 VAR1 + 4 VAR2 + 2 VAR3 + 5 VAR4 + 3 VAR5 <= 23
 c5: 1 VAR3 - 1 VAR4 = 0
Bounds
 0 <= VAR1 <= +inf
 0 <= VAR2 <= +inf
 0 <= VAR3 <= +inf
 0 <= VAR4 <= +inf
 0 <= VAR5 <= +inf
General
End
